; Property from "Case-Analysis for Rippling and Inductive Proof",
; Moa Johansson, Lucas Dixon and Alan Bundy, ITP 2010
(declare-datatypes (a)
  ((list (nil) (cons (head a) (tail (list a))))))
(declare-datatypes () ((Nat (Z) (S (p Nat)))))
(define-fun-rec
  last
    ((x (list Nat))) Nat
    (match x
      (case nil Z)
      (case (cons y z)
        (match z
          (case nil y)
          (case (cons x2 x3) (last z))))))
(define-fun-rec
  (par (a)
    (append
       ((x (list a)) (y (list a))) (list a)
       (match x
         (case nil y)
         (case (cons z xs) (cons z (append xs y)))))))
(assert-not
  (forall ((xs (list Nat)) (ys (list Nat)))
    (=> (= ys (as nil (list Nat)))
      (= (last (append xs ys)) (last xs)))))
(check-sat)
